p cnf 727 523
e 422 423 424 425 426 427 428 429 430 431 321 322 405 406 407 408 409 0
a 513 514 515 516 517 520 531 533 535 537 539 549 550 551 552 553 0
e 432 433 434 435 436 437 438 439 440 441 554 555 556 557 558 559 560 561 562 563 564 565 566 567 568 569 570 571 572 573 574 575 576 577 578 579 580 581 582 583 584 585 586 587 588 589 590 591 592 593 594 595 596 597 598 599 600 601 602 603 604 605 606 607 608 609 610 611 612 613 614 615 616 617 618 619 620 621 622 623 624 625 626 627 628 629 630 631 632 633 634 635 636 637 638 639 640 641 642 643 644 645 646 647 648 649 650 651 652 653 654 655 656 657 658 659 660 661 662 663 664 665 666 667 668 669 670 671 672 673 674 675 676 677 678 679 680 681 682 683 684 685 686 687 688 689 690 691 692 693 694 695 696 697 698 699 700 701 702 703 704 705 706 707 708 709 710 711 712 713 714 715 716 717 718 719 720 721 722 723 724 725 726 727 0
434 -554 0
-440 -554 0
440 554 -434 0
-436 -555 0
554 -555 0
436 555 -554 0
-432 -556 0
555 -556 0
432 556 -555 0
-439 -557 0
556 -557 0
439 557 -556 0
-434 -558 0
440 -558 0
434 558 -440 0
-436 -559 0
558 -559 0
436 559 -558 0
-432 -560 0
559 -560 0
432 560 -559 0
-439 -561 0
560 -561 0
439 561 -560 0
-434 -562 0
-440 -562 0
434 440 562 0
436 -563 0
562 -563 0
563 -436 -562 0
-432 -564 0
563 -564 0
432 564 -563 0
-439 -565 0
564 -565 0
439 565 -564 0
-436 -566 0
562 -566 0
436 566 -562 0
-432 -567 0
566 -567 0
432 567 -566 0
439 -568 0
567 -568 0
568 -439 -567 0
432 -569 0
566 -569 0
569 -432 -566 0
-439 -570 0
569 -570 0
439 570 -569 0
-568 -571 0
-570 -571 0
568 570 571 0
-565 -572 0
571 -572 0
565 572 -571 0
-561 -573 0
572 -573 0
561 573 -572 0
-557 -574 0
573 -574 0
557 574 -573 0
-422 -575 0
-423 -575 0
422 423 575 0
-424 -576 0
575 -576 0
424 576 -575 0
-425 -577 0
576 -577 0
425 577 -576 0
-426 -578 0
577 -578 0
426 578 -577 0
-427 -579 0
578 -579 0
427 579 -578 0
-428 -580 0
579 -580 0
428 580 -579 0
429 -581 0
580 -581 0
581 -429 -580 0
-430 -582 0
581 -582 0
430 582 -581 0
-431 -583 0
582 -583 0
431 583 -582 0
-539 -584 0
-441 -584 0
539 441 584 0
539 -585 0
441 -585 0
585 -539 -441 0
-584 -586 0
-585 -586 0
584 585 586 0
-408 -587 0
-409 -587 0
408 409 587 0
429 -588 0
-587 -588 0
587 588 -429 0
-422 -589 0
-588 -589 0
422 588 589 0
430 -590 0
589 -590 0
590 -430 -589 0
429 -591 0
-422 -591 0
422 591 -429 0
-426 -592 0
591 -592 0
426 592 -591 0
-430 -593 0
592 -593 0
430 593 -592 0
-424 -594 0
593 -594 0
424 594 -593 0
-590 -595 0
594 -595 0
590 595 -594 0
406 -596 0
425 -596 0
596 -406 -425 0
-407 -597 0
-596 -597 0
407 596 597 0
514 -598 0
597 -598 0
598 -514 -597 0
-429 -599 0
422 -599 0
429 599 -422 0
-426 -600 0
599 -600 0
426 600 -599 0
-430 -601 0
600 -601 0
430 601 -600 0
-424 -602 0
601 -602 0
424 602 -601 0
598 -603 0
602 -603 0
603 -598 -602 0
-406 -604 0
-430 -604 0
406 430 604 0
-407 -605 0
-604 -605 0
407 604 605 0
-429 -606 0
-422 -606 0
429 422 606 0
426 -607 0
606 -607 0
607 -426 -606 0
-430 -608 0
607 -608 0
430 608 -607 0
-424 -609 0
608 -609 0
424 609 -608 0
-605 -610 0
609 -610 0
605 610 -609 0
430 -611 0
-406 -611 0
406 611 -430 0
-407 -612 0
611 -612 0
407 612 -611 0
-426 -613 0
606 -613 0
426 613 -606 0
430 -614 0
613 -614 0
614 -430 -613 0
-424 -615 0
614 -615 0
424 615 -614 0
612 -616 0
615 -616 0
616 -612 -615 0
552 -617 0
-615 -617 0
615 617 -552 0
-616 -618 0
-617 -618 0
616 617 618 0
-609 -619 0
618 -619 0
609 619 -618 0
-610 -620 0
-619 -620 0
610 619 620 0
-602 -621 0
620 -621 0
602 621 -620 0
-603 -622 0
-621 -622 0
603 621 622 0
-594 -623 0
622 -623 0
594 623 -622 0
-595 -624 0
-623 -624 0
595 623 624 0
405 -625 0
624 -625 0
625 -405 -624 0
-440 -626 0
-625 -626 0
440 625 626 0
440 -627 0
625 -627 0
627 -440 -625 0
-626 -628 0
-627 -628 0
626 627 628 0
429 -629 0
589 -629 0
629 -429 -589 0
-629 -630 0
594 -630 0
629 630 -594 0
516 -631 0
602 -631 0
631 -516 -602 0
321 -632 0
535 -632 0
632 -321 -535 0
322 -633 0
-535 -633 0
535 633 -322 0
-632 -634 0
-633 -634 0
632 633 634 0
634 -635 0
609 -635 0
635 -634 -609 0
429 -636 0
-406 -636 0
406 636 -429 0
-407 -637 0
-636 -637 0
407 636 637 0
-637 -638 0
615 -638 0
637 638 -615 0
550 -639 0
-615 -639 0
615 639 -550 0
-638 -640 0
-639 -640 0
638 639 640 0
-609 -641 0
640 -641 0
609 641 -640 0
-635 -642 0
-641 -642 0
635 641 642 0
-602 -643 0
642 -643 0
602 643 -642 0
-631 -644 0
-643 -644 0
631 643 644 0
-594 -645 0
644 -645 0
594 645 -644 0
-630 -646 0
-645 -646 0
630 645 646 0
405 -647 0
-646 -647 0
646 647 -405 0
-439 -648 0
-647 -648 0
439 647 648 0
439 -649 0
647 -649 0
649 -439 -647 0
-648 -650 0
-649 -650 0
648 649 650 0
-533 -651 0
-438 -651 0
533 438 651 0
533 -652 0
438 -652 0
652 -533 -438 0
-651 -653 0
-652 -653 0
651 652 653 0
-537 -654 0
-437 -654 0
537 437 654 0
537 -655 0
437 -655 0
655 -537 -437 0
-654 -656 0
-655 -656 0
654 655 656 0
426 -657 0
589 -657 0
657 -426 -589 0
657 -658 0
594 -658 0
658 -657 -594 0
513 -659 0
597 -659 0
659 -513 -597 0
-659 -660 0
602 -660 0
659 660 -602 0
426 -661 0
-406 -661 0
406 661 -426 0
-407 -662 0
661 -662 0
407 662 -661 0
662 -663 0
609 -663 0
663 -662 -609 0
549 -664 0
-609 -664 0
609 664 -549 0
-663 -665 0
-664 -665 0
663 664 665 0
-602 -666 0
665 -666 0
602 666 -665 0
-660 -667 0
-666 -667 0
660 666 667 0
-594 -668 0
667 -668 0
594 668 -667 0
-658 -669 0
-668 -669 0
658 668 669 0
405 -670 0
-669 -670 0
669 670 -405 0
-436 -671 0
-670 -671 0
436 670 671 0
436 -672 0
670 -672 0
672 -436 -670 0
-671 -673 0
-672 -673 0
671 672 673 0
-531 -674 0
-435 -674 0
531 435 674 0
531 -675 0
435 -675 0
675 -531 -435 0
-674 -676 0
-675 -676 0
674 675 676 0
515 -677 0
597 -677 0
677 -515 -597 0
677 -678 0
602 -678 0
678 -677 -602 0
424 -679 0
-406 -679 0
406 679 -424 0
-407 -680 0
679 -680 0
407 680 -679 0
-680 -681 0
609 -681 0
680 681 -609 0
-406 -682 0
-424 -682 0
406 424 682 0
-407 -683 0
-682 -683 0
407 682 683 0
683 -684 0
615 -684 0
684 -683 -615 0
553 -685 0
-615 -685 0
615 685 -553 0
-684 -686 0
-685 -686 0
684 685 686 0
-609 -687 0
686 -687 0
609 687 -686 0
-681 -688 0
-687 -688 0
681 687 688 0
-602 -689 0
688 -689 0
602 689 -688 0
-678 -690 0
-689 -690 0
678 689 690 0
-594 -691 0
-690 -691 0
594 690 691 0
405 -692 0
691 -692 0
692 -405 -691 0
-434 -693 0
-692 -693 0
434 692 693 0
434 -694 0
692 -694 0
694 -434 -692 0
-693 -695 0
-694 -695 0
693 694 695 0
-520 -696 0
-433 -696 0
520 433 696 0
520 -697 0
433 -697 0
697 -520 -433 0
-696 -698 0
-697 -698 0
696 697 698 0
589 -699 0
594 -699 0
699 -589 -594 0
517 -700 0
602 -700 0
700 -517 -602 0
422 -701 0
-406 -701 0
406 701 -422 0
-407 -702 0
701 -702 0
407 702 -701 0
-702 -703 0
609 -703 0
702 703 -609 0
702 -704 0
615 -704 0
704 -702 -615 0
551 -705 0
-615 -705 0
615 705 -551 0
-704 -706 0
-705 -706 0
704 705 706 0
-609 -707 0
706 -707 0
609 707 -706 0
-703 -708 0
-707 -708 0
703 707 708 0
-602 -709 0
708 -709 0
602 709 -708 0
-700 -710 0
-709 -710 0
700 709 710 0
-594 -711 0
710 -711 0
594 711 -710 0
-699 -712 0
-711 -712 0
699 711 712 0
405 -713 0
712 -713 0
713 -405 -712 0
-432 -714 0
-713 -714 0
432 713 714 0
432 -715 0
713 -715 0
715 -432 -713 0
-714 -716 0
-715 -716 0
714 715 716 0
-698 -717 0
-716 -717 0
698 716 717 0
-695 -718 0
717 -718 0
695 718 -717 0
-676 -719 0
718 -719 0
676 719 -718 0
-673 -720 0
719 -720 0
673 720 -719 0
-656 -721 0
720 -721 0
656 721 -720 0
-653 -722 0
721 -722 0
653 722 -721 0
650 -723 0
722 -723 0
723 -650 -722 0
-628 -724 0
723 -724 0
628 724 -723 0
-586 -725 0
724 -725 0
586 725 -724 0
583 -726 0
725 -726 0
726 -583 -725 0
574 -727 0
726 -727 0
727 -574 -726 0
727 0
